# 固液界面の界面張力計算

units metal
dimension 3
boundary p p p
atom_style atomic

# 原子データの読み込み
read_data data.lammps

# ポテンシャルの設定
pair_style eam/alloy
pair_coeff * * potential_file element1 element2

# 温度制御
velocity all create 300.0 12345 mom yes rot no dist gaussian
fix nvt all nvt temp 300.0 300.0 0.1

# 仮想壁の設定（初期では壁の影響なし）
variable lambda equal 0.0
variable epsilon equal ${lambda} * epsilon0
variable epsilon0 equal 1.0  # 適切な値に設定
variable sigma equal 2.5     # 適切な値に設定
variable cutoff equal 12.5   # 適切な値に設定

# 壁の定義
fix wall all wall/lj93 zhi EDGE epsilon ${epsilon} sigma ${sigma} cutoff ${cutoff} units box

# 壁と液体の相互作用力の計算
compute fwall all group/group all

# 出力の設定
thermo 1000
thermo_style custom step temp pe c_fwall[3]

# λを変化させるループ
variable dlambda equal 0.1
label loop_lambda
variable lambda equal ${lambda} + ${dlambda}
if "${lambda} > 1.0" then "jump SELF break_lambda"

# 壁ポテンシャルの強さを更新
variable epsilon equal ${lambda} * ${epsilon0}
unfix wall
fix wall all wall/lj93 zhi EDGE epsilon ${epsilon} sigma ${sigma} cutoff ${cutoff} units box

# シミュレーションの実行
run 100000

# 力の平均値を取得してファイルに出力
variable fz equal c_fwall[3]
fix avg all ave/time 1 100000 100000 v_fz file force.dat mode vector

# ループの繰り返し
jump SELF loop_lambda
label break_lambda
